(set-info :smt-lib-version 2.6)
(set-logic UF)
(set-info :source |Benchmarks from the paper: "Extending Sledgehammer with SMT Solvers" by Jasmin Blanchette, Sascha Bohme, and Lawrence C. Paulson, CADE 2011.  Translated to SMT2 by Andrew Reynolds and Morgan Deters.|)
(set-info :category "industrial")
(set-info :status sat)
(declare-sort S1 0)
(declare-sort S2 0)
(declare-sort S3 0)
(declare-sort S4 0)
(declare-sort S5 0)
(declare-sort S6 0)
(declare-sort S7 0)
(declare-sort S8 0)
(declare-sort S9 0)
(declare-sort S10 0)
(declare-sort S11 0)
(declare-sort S12 0)
(declare-sort S13 0)
(declare-sort S14 0)
(declare-sort S15 0)
(declare-sort S16 0)
(declare-sort S17 0)
(declare-sort S18 0)
(declare-sort S19 0)
(declare-sort S20 0)
(declare-sort S21 0)
(declare-sort S22 0)
(declare-sort S23 0)
(declare-sort S24 0)
(declare-sort S25 0)
(declare-sort S26 0)
(declare-sort S27 0)
(declare-sort S28 0)
(declare-sort S29 0)
(declare-sort S30 0)
(declare-sort S31 0)
(declare-sort S32 0)
(declare-sort S33 0)
(declare-sort S34 0)
(declare-sort S35 0)
(declare-sort S36 0)
(declare-sort S37 0)
(declare-sort S38 0)
(declare-sort S39 0)
(declare-sort S40 0)
(declare-sort S41 0)
(declare-sort S42 0)
(declare-sort S43 0)
(declare-sort S44 0)
(declare-sort S45 0)
(declare-sort S46 0)
(declare-sort S47 0)
(declare-sort S48 0)
(declare-sort S49 0)
(declare-sort S50 0)
(declare-sort S51 0)
(declare-sort S52 0)
(declare-sort S53 0)
(declare-sort S54 0)
(declare-sort S55 0)
(declare-sort S56 0)
(declare-sort S57 0)
(declare-sort S58 0)
(declare-sort S59 0)
(declare-sort S60 0)
(declare-sort S61 0)
(declare-sort S62 0)
(declare-sort S63 0)
(declare-sort S64 0)
(declare-sort S65 0)
(declare-sort S66 0)
(declare-sort S67 0)
(declare-sort S68 0)
(declare-sort S69 0)
(declare-sort S70 0)
(declare-sort S71 0)
(declare-sort S72 0)
(declare-sort S73 0)
(declare-sort S74 0)
(declare-sort S75 0)
(declare-sort S76 0)
(declare-sort S77 0)
(declare-sort S78 0)
(declare-sort S79 0)
(declare-sort S80 0)
(declare-sort S81 0)
(declare-sort S82 0)
(declare-sort S83 0)
(declare-sort S84 0)
(declare-sort S85 0)
(declare-sort S86 0)
(declare-sort S87 0)
(declare-sort S88 0)
(declare-sort S89 0)
(declare-sort S90 0)
(declare-sort S91 0)
(declare-sort S92 0)
(declare-sort S93 0)
(declare-sort S94 0)
(declare-sort S95 0)
(declare-sort S96 0)
(declare-sort S97 0)
(declare-sort S98 0)
(declare-sort S99 0)
(declare-sort S100 0)
(declare-sort S101 0)
(declare-sort S102 0)
(declare-sort S103 0)
(declare-fun f1 () S1)
(declare-fun f2 () S1)
(declare-fun f3 (S2 S3) S4)
(declare-fun f4 () S2)
(declare-fun f5 (S5 S6) S3)
(declare-fun f6 (S7 S3) S5)
(declare-fun f7 () S7)
(declare-fun f8 () S3)
(declare-fun f9 () S6)
(declare-fun f10 () S3)
(declare-fun f11 (S4 S8) S8)
(declare-fun f12 (S9 S6) S8)
(declare-fun f13 (S10 S8) S9)
(declare-fun f14 () S10)
(declare-fun f15 (S13 S12) S12)
(declare-fun f16 (S14 S11) S13)
(declare-fun f17 () S14)
(declare-fun f18 (S15 S6) S11)
(declare-fun f19 (S16 S11) S15)
(declare-fun f20 () S16)
(declare-fun f21 (S17 S6) S12)
(declare-fun f22 (S18 S12) S17)
(declare-fun f23 () S18)
(declare-fun f24 (S20 S3) S3)
(declare-fun f25 (S21 S19) S20)
(declare-fun f26 () S21)
(declare-fun f27 (S22 S6) S19)
(declare-fun f28 (S23 S19) S22)
(declare-fun f29 () S23)
(declare-fun f30 (S26 S25) S25)
(declare-fun f31 (S27 S24) S26)
(declare-fun f32 () S27)
(declare-fun f33 (S28 S6) S24)
(declare-fun f34 (S29 S24) S28)
(declare-fun f35 () S29)
(declare-fun f36 (S30 S6) S25)
(declare-fun f37 (S31 S25) S30)
(declare-fun f38 () S31)
(declare-fun f39 (S34 S33) S33)
(declare-fun f40 (S35 S32) S34)
(declare-fun f41 () S35)
(declare-fun f42 (S36 S6) S32)
(declare-fun f43 (S37 S32) S36)
(declare-fun f44 () S37)
(declare-fun f45 (S38 S6) S33)
(declare-fun f46 (S39 S33) S38)
(declare-fun f47 () S39)
(declare-fun f48 (S42 S41) S41)
(declare-fun f49 (S43 S40) S42)
(declare-fun f50 () S43)
(declare-fun f51 (S44 S6) S40)
(declare-fun f52 (S45 S40) S44)
(declare-fun f53 () S45)
(declare-fun f54 (S46 S6) S41)
(declare-fun f55 (S47 S41) S46)
(declare-fun f56 () S47)
(declare-fun f57 (S48 S19) S19)
(declare-fun f58 (S49 S41) S48)
(declare-fun f59 () S49)
(declare-fun f60 (S50 S11) S11)
(declare-fun f61 (S51 S33) S50)
(declare-fun f62 () S51)
(declare-fun f63 (S53 S52) S52)
(declare-fun f64 (S54 S25) S53)
(declare-fun f65 () S54)
(declare-fun f66 (S55 S6) S52)
(declare-fun f67 (S56 S52) S55)
(declare-fun f68 () S56)
(declare-fun f69 (S57 S3) S20)
(declare-fun f70 () S57)
(declare-fun f71 (S58 S33) S34)
(declare-fun f72 () S58)
(declare-fun f73 (S59 S24) S24)
(declare-fun f74 (S60 S24) S59)
(declare-fun f75 () S60)
(declare-fun f76 (S61 S41) S42)
(declare-fun f77 () S61)
(declare-fun f78 (S62 S19) S48)
(declare-fun f79 () S62)
(declare-fun f80 (S63 S25) S26)
(declare-fun f81 () S63)
(declare-fun f82 (S64 S11) S50)
(declare-fun f83 () S64)
(declare-fun f84 (S65 S8) S5)
(declare-fun f85 () S65)
(declare-fun f86 (S66 S8) S4)
(declare-fun f87 () S66)
(declare-fun f88 (S67 S12) S15)
(declare-fun f89 () S67)
(declare-fun f90 (S68 S12) S13)
(declare-fun f91 () S68)
(declare-fun f92 (S69 S3) S22)
(declare-fun f93 () S69)
(declare-fun f94 () S57)
(declare-fun f95 (S70 S25) S28)
(declare-fun f96 () S70)
(declare-fun f97 () S63)
(declare-fun f98 (S71 S33) S36)
(declare-fun f99 () S71)
(declare-fun f100 () S58)
(declare-fun f101 (S72 S41) S44)
(declare-fun f102 () S72)
(declare-fun f103 () S61)
(declare-fun f104 (S73 S19) S46)
(declare-fun f105 () S73)
(declare-fun f106 () S62)
(declare-fun f107 (S74 S11) S38)
(declare-fun f108 () S74)
(declare-fun f109 () S64)
(declare-fun f110 (S75 S52) S30)
(declare-fun f111 () S75)
(declare-fun f112 (S76 S52) S53)
(declare-fun f113 () S76)
(declare-fun f114 (S12 S77) S1)
(declare-fun f115 () S77)
(declare-fun f116 (S3 S78) S1)
(declare-fun f117 () S78)
(declare-fun f118 (S25 S79) S1)
(declare-fun f119 () S79)
(declare-fun f120 (S33 S80) S1)
(declare-fun f121 () S80)
(declare-fun f122 (S41 S81) S1)
(declare-fun f123 () S81)
(declare-fun f124 (S19 S82) S1)
(declare-fun f125 () S82)
(declare-fun f126 (S11 S83) S1)
(declare-fun f127 () S83)
(declare-fun f128 (S52 S84) S1)
(declare-fun f129 () S84)
(declare-fun f130 (S8 S85) S1)
(declare-fun f131 () S85)
(declare-fun f132 (S4) S1)
(declare-fun f133 () S8)
(declare-fun f134 (S86 S8) S3)
(declare-fun f135 (S87 S3) S86)
(declare-fun f136 () S87)
(declare-fun f137 () S66)
(declare-fun f138 (S88 S12) S11)
(declare-fun f139 (S89 S11) S88)
(declare-fun f140 () S89)
(declare-fun f141 () S68)
(declare-fun f142 (S90 S11) S33)
(declare-fun f143 (S91 S33) S90)
(declare-fun f144 () S91)
(declare-fun f145 () S64)
(declare-fun f146 (S92 S25) S24)
(declare-fun f147 (S93 S24) S92)
(declare-fun f148 () S93)
(declare-fun f149 () S63)
(declare-fun f150 (S94 S19) S41)
(declare-fun f151 (S95 S41) S94)
(declare-fun f152 () S95)
(declare-fun f153 () S62)
(declare-fun f154 (S96 S3) S19)
(declare-fun f155 (S97 S19) S96)
(declare-fun f156 () S97)
(declare-fun f157 () S57)
(declare-fun f158 (S98 S52) S25)
(declare-fun f159 (S99 S25) S98)
(declare-fun f160 () S99)
(declare-fun f161 () S76)
(declare-fun f162 () S77)
(declare-fun f163 () S85)
(declare-fun f164 () S85)
(declare-fun f165 () S3)
(declare-fun f166 () S33)
(declare-fun f167 () S24)
(declare-fun f168 () S25)
(declare-fun f169 () S11)
(declare-fun f170 () S13)
(declare-fun f171 (S100 S12) S8)
(declare-fun f172 () S100)
(declare-fun f173 () S12)
(declare-fun f174 () S52)
(declare-fun f175 () S19)
(declare-fun f176 (S24 S101) S1)
(declare-fun f177 () S101)
(declare-fun f178 () S41)
(declare-fun f179 () S32)
(declare-fun f180 (S102 S103) S59)
(declare-fun f181 () S102)
(declare-fun f182 () S103)
(declare-fun f183 (S24 S6) S103)
(declare-fun f184 () S60)
(declare-fun f185 () S58)
(declare-fun f186 () S60)
(assert (not (= f1 f2)))
(assert (not (= (f3 f4 (f5 (f6 f7 f8) f9)) (f3 f4 f10))))
(assert (forall ((?v0 S8)) (= (f11 (f3 f4 (f5 (f6 f7 f8) f9)) ?v0) (f11 (f3 f4 f10) ?v0))))
(assert (forall ((?v0 S8)) (= (f11 (f3 f4 (f5 (f6 f7 f8) f9)) ?v0) (f11 (f3 f4 f10) ?v0))))
(assert (forall ((?v0 S3) (?v1 S6) (?v2 S8)) (= (f11 (f3 f4 (f5 (f6 f7 ?v0) ?v1)) ?v2) (f12 (f13 f14 (f11 (f3 f4 ?v0) ?v2)) ?v1))))
(assert (forall ((?v0 S11) (?v1 S6) (?v2 S12)) (= (f15 (f16 f17 (f18 (f19 f20 ?v0) ?v1)) ?v2) (f21 (f22 f23 (f15 (f16 f17 ?v0) ?v2)) ?v1))))
(assert (forall ((?v0 S19) (?v1 S6) (?v2 S3)) (= (f24 (f25 f26 (f27 (f28 f29 ?v0) ?v1)) ?v2) (f5 (f6 f7 (f24 (f25 f26 ?v0) ?v2)) ?v1))))
(assert (forall ((?v0 S24) (?v1 S6) (?v2 S25)) (= (f30 (f31 f32 (f33 (f34 f35 ?v0) ?v1)) ?v2) (f36 (f37 f38 (f30 (f31 f32 ?v0) ?v2)) ?v1))))
(assert (forall ((?v0 S32) (?v1 S6) (?v2 S33)) (= (f39 (f40 f41 (f42 (f43 f44 ?v0) ?v1)) ?v2) (f45 (f46 f47 (f39 (f40 f41 ?v0) ?v2)) ?v1))))
(assert (forall ((?v0 S40) (?v1 S6) (?v2 S41)) (= (f48 (f49 f50 (f51 (f52 f53 ?v0) ?v1)) ?v2) (f54 (f55 f56 (f48 (f49 f50 ?v0) ?v2)) ?v1))))
(assert (forall ((?v0 S41) (?v1 S6) (?v2 S19)) (= (f57 (f58 f59 (f54 (f55 f56 ?v0) ?v1)) ?v2) (f27 (f28 f29 (f57 (f58 f59 ?v0) ?v2)) ?v1))))
(assert (forall ((?v0 S33) (?v1 S6) (?v2 S11)) (= (f60 (f61 f62 (f45 (f46 f47 ?v0) ?v1)) ?v2) (f18 (f19 f20 (f60 (f61 f62 ?v0) ?v2)) ?v1))))
(assert (forall ((?v0 S25) (?v1 S6) (?v2 S52)) (= (f63 (f64 f65 (f36 (f37 f38 ?v0) ?v1)) ?v2) (f66 (f67 f68 (f63 (f64 f65 ?v0) ?v2)) ?v1))))
(assert (forall ((?v0 S3) (?v1 S3)) (= (= (f3 f4 ?v0) (f3 f4 ?v1)) (= ?v0 ?v1))))
(assert (forall ((?v0 S33) (?v1 S33)) (= (= (f61 f62 ?v0) (f61 f62 ?v1)) (= ?v0 ?v1))))
(assert (forall ((?v0 S24) (?v1 S24)) (= (= (f31 f32 ?v0) (f31 f32 ?v1)) (= ?v0 ?v1))))
(assert (forall ((?v0 S25) (?v1 S25)) (= (= (f64 f65 ?v0) (f64 f65 ?v1)) (= ?v0 ?v1))))
(assert (forall ((?v0 S11) (?v1 S11)) (= (= (f16 f17 ?v0) (f16 f17 ?v1)) (= ?v0 ?v1))))
(assert (forall ((?v0 S3) (?v1 S3) (?v2 S8)) (= (f11 (f3 f4 (f24 (f69 f70 ?v0) ?v1)) ?v2) (f11 (f3 f4 ?v0) (f11 (f3 f4 ?v1) ?v2)))))
(assert (forall ((?v0 S33) (?v1 S33) (?v2 S11)) (= (f60 (f61 f62 (f39 (f71 f72 ?v0) ?v1)) ?v2) (f60 (f61 f62 ?v0) (f60 (f61 f62 ?v1) ?v2)))))
(assert (forall ((?v0 S24) (?v1 S24) (?v2 S25)) (= (f30 (f31 f32 (f73 (f74 f75 ?v0) ?v1)) ?v2) (f30 (f31 f32 ?v0) (f30 (f31 f32 ?v1) ?v2)))))
(assert (forall ((?v0 S41) (?v1 S41) (?v2 S19)) (= (f57 (f58 f59 (f48 (f76 f77 ?v0) ?v1)) ?v2) (f57 (f58 f59 ?v0) (f57 (f58 f59 ?v1) ?v2)))))
(assert (forall ((?v0 S19) (?v1 S19) (?v2 S3)) (= (f24 (f25 f26 (f57 (f78 f79 ?v0) ?v1)) ?v2) (f24 (f25 f26 ?v0) (f24 (f25 f26 ?v1) ?v2)))))
(assert (forall ((?v0 S25) (?v1 S25) (?v2 S52)) (= (f63 (f64 f65 (f30 (f80 f81 ?v0) ?v1)) ?v2) (f63 (f64 f65 ?v0) (f63 (f64 f65 ?v1) ?v2)))))
(assert (forall ((?v0 S11) (?v1 S11) (?v2 S12)) (= (f15 (f16 f17 (f60 (f82 f83 ?v0) ?v1)) ?v2) (f15 (f16 f17 ?v0) (f15 (f16 f17 ?v1) ?v2)))))
(assert (forall ((?v0 S8) (?v1 S6) (?v2 S8)) (= (f11 (f3 f4 (f5 (f84 f85 ?v0) ?v1)) ?v2) (f11 (f86 f87 ?v0) (f12 (f13 f14 ?v2) ?v1)))))
(assert (forall ((?v0 S12) (?v1 S6) (?v2 S12)) (= (f15 (f16 f17 (f18 (f88 f89 ?v0) ?v1)) ?v2) (f15 (f90 f91 ?v0) (f21 (f22 f23 ?v2) ?v1)))))
(assert (forall ((?v0 S3) (?v1 S6) (?v2 S3)) (= (f24 (f25 f26 (f27 (f92 f93 ?v0) ?v1)) ?v2) (f24 (f69 f94 ?v0) (f5 (f6 f7 ?v2) ?v1)))))
(assert (forall ((?v0 S25) (?v1 S6) (?v2 S25)) (= (f30 (f31 f32 (f33 (f95 f96 ?v0) ?v1)) ?v2) (f30 (f80 f97 ?v0) (f36 (f37 f38 ?v2) ?v1)))))
(assert (forall ((?v0 S33) (?v1 S6) (?v2 S33)) (= (f39 (f40 f41 (f42 (f98 f99 ?v0) ?v1)) ?v2) (f39 (f71 f100 ?v0) (f45 (f46 f47 ?v2) ?v1)))))
(assert (forall ((?v0 S41) (?v1 S6) (?v2 S41)) (= (f48 (f49 f50 (f51 (f101 f102 ?v0) ?v1)) ?v2) (f48 (f76 f103 ?v0) (f54 (f55 f56 ?v2) ?v1)))))
(assert (forall ((?v0 S19) (?v1 S6) (?v2 S19)) (= (f57 (f58 f59 (f54 (f104 f105 ?v0) ?v1)) ?v2) (f57 (f78 f106 ?v0) (f27 (f28 f29 ?v2) ?v1)))))
(assert (forall ((?v0 S11) (?v1 S6) (?v2 S11)) (= (f60 (f61 f62 (f45 (f107 f108 ?v0) ?v1)) ?v2) (f60 (f82 f109 ?v0) (f18 (f19 f20 ?v2) ?v1)))))
(assert (forall ((?v0 S52) (?v1 S6) (?v2 S52)) (= (f63 (f64 f65 (f36 (f110 f111 ?v0) ?v1)) ?v2) (f63 (f112 f113 ?v0) (f66 (f67 f68 ?v2) ?v1)))))
(assert (forall ((?v0 S12) (?v1 S6)) (=> (= (f114 ?v0 f115) f1) (= (f114 (f21 (f22 f23 ?v0) ?v1) f115) f1))))
(assert (forall ((?v0 S3) (?v1 S6)) (=> (= (f116 ?v0 f117) f1) (= (f116 (f5 (f6 f7 ?v0) ?v1) f117) f1))))
(assert (forall ((?v0 S25) (?v1 S6)) (=> (= (f118 ?v0 f119) f1) (= (f118 (f36 (f37 f38 ?v0) ?v1) f119) f1))))
(assert (forall ((?v0 S33) (?v1 S6)) (=> (= (f120 ?v0 f121) f1) (= (f120 (f45 (f46 f47 ?v0) ?v1) f121) f1))))
(assert (forall ((?v0 S41) (?v1 S6)) (=> (= (f122 ?v0 f123) f1) (= (f122 (f54 (f55 f56 ?v0) ?v1) f123) f1))))
(assert (forall ((?v0 S19) (?v1 S6)) (=> (= (f124 ?v0 f125) f1) (= (f124 (f27 (f28 f29 ?v0) ?v1) f125) f1))))
(assert (forall ((?v0 S11) (?v1 S6)) (=> (= (f126 ?v0 f127) f1) (= (f126 (f18 (f19 f20 ?v0) ?v1) f127) f1))))
(assert (forall ((?v0 S52) (?v1 S6)) (=> (= (f128 ?v0 f129) f1) (= (f128 (f66 (f67 f68 ?v0) ?v1) f129) f1))))
(assert (forall ((?v0 S8) (?v1 S6)) (=> (= (f130 ?v0 f131) f1) (= (f130 (f12 (f13 f14 ?v0) ?v1) f131) f1))))
(assert (forall ((?v0 S4)) (= (= (f132 ?v0) f1) (forall ((?v1 S8) (?v2 S8)) (= (f11 ?v0 ?v1) (f11 ?v0 ?v2))))))
(assert (forall ((?v0 S3)) (=> (not (= (f132 (f3 f4 ?v0)) f1)) (exists ((?v1 S8)) (= (f11 (f3 f4 ?v0) ?v1) f133)))))
(assert (forall ((?v0 S3) (?v1 S8) (?v2 S8)) (= (f11 (f3 f4 (f134 (f135 f136 ?v0) ?v1)) ?v2) (f11 (f3 f4 ?v0) (f11 (f86 f137 ?v1) ?v2)))))
(assert (forall ((?v0 S11) (?v1 S12) (?v2 S12)) (= (f15 (f16 f17 (f138 (f139 f140 ?v0) ?v1)) ?v2) (f15 (f16 f17 ?v0) (f15 (f90 f141 ?v1) ?v2)))))
(assert (forall ((?v0 S33) (?v1 S11) (?v2 S11)) (= (f60 (f61 f62 (f142 (f143 f144 ?v0) ?v1)) ?v2) (f60 (f61 f62 ?v0) (f60 (f82 f145 ?v1) ?v2)))))
(assert (forall ((?v0 S24) (?v1 S25) (?v2 S25)) (= (f30 (f31 f32 (f146 (f147 f148 ?v0) ?v1)) ?v2) (f30 (f31 f32 ?v0) (f30 (f80 f149 ?v1) ?v2)))))
(assert (forall ((?v0 S41) (?v1 S19) (?v2 S19)) (= (f57 (f58 f59 (f150 (f151 f152 ?v0) ?v1)) ?v2) (f57 (f58 f59 ?v0) (f57 (f78 f153 ?v1) ?v2)))))
(assert (forall ((?v0 S19) (?v1 S3) (?v2 S3)) (= (f24 (f25 f26 (f154 (f155 f156 ?v0) ?v1)) ?v2) (f24 (f25 f26 ?v0) (f24 (f69 f157 ?v1) ?v2)))))
(assert (forall ((?v0 S25) (?v1 S52) (?v2 S52)) (= (f63 (f64 f65 (f158 (f159 f160 ?v0) ?v1)) ?v2) (f63 (f64 f65 ?v0) (f63 (f112 f161 ?v1) ?v2)))))
(assert (forall ((?v0 S12) (?v1 S6)) (=> (= (f114 ?v0 f162) f1) (= (f114 (f21 (f22 f23 ?v0) ?v1) f162) f1))))
(assert (forall ((?v0 S8) (?v1 S6)) (=> (= (f130 ?v0 f163) f1) (= (f130 (f12 (f13 f14 ?v0) ?v1) f163) f1))))
(assert (forall ((?v0 S8) (?v1 S6)) (=> (= (f130 ?v0 f164) f1) (= (f130 (f12 (f13 f14 ?v0) ?v1) f164) f1))))
(assert (forall ((?v0 S3)) (= (= (f3 f4 ?v0) (f3 f4 f165)) (= ?v0 f165))))
(assert (forall ((?v0 S33)) (= (= (f61 f62 ?v0) (f61 f62 f166)) (= ?v0 f166))))
(assert (forall ((?v0 S24)) (= (= (f31 f32 ?v0) (f31 f32 f167)) (= ?v0 f167))))
(assert (forall ((?v0 S25)) (= (= (f64 f65 ?v0) (f64 f65 f168)) (= ?v0 f168))))
(assert (forall ((?v0 S11)) (= (= (f16 f17 ?v0) (f16 f17 f169)) (= ?v0 f169))))
(assert (forall ((?v0 S12) (?v1 S6)) (= (f15 f170 (f21 (f22 f23 ?v0) ?v1)) (f21 (f22 f23 (f15 f170 ?v0)) ?v1))))
(assert (forall ((?v0 S12) (?v1 S6)) (= (f171 f172 (f21 (f22 f23 ?v0) ?v1)) (f12 (f13 f14 (f171 f172 ?v0)) ?v1))))
(assert (= (f130 f133 f164) f1))
(assert (= (f114 f173 f115) f1))
(assert (= (f130 f133 f131) f1))
(assert (= (f128 f174 f129) f1))
(assert (= (f124 f175 f125) f1))
(assert (= (f120 f166 f121) f1))
(assert (= (f176 f167 f177) f1))
(assert (= (f118 f168 f119) f1))
(assert (= (f126 f169 f127) f1))
(assert (= (f116 f165 f117) f1))
(assert (= (f114 f173 f162) f1))
(assert (= (f130 f133 f163) f1))
(assert (= (f15 f170 f173) f173))
(assert (= (f171 f172 f173) f133))
(assert (forall ((?v0 S12)) (= (f130 (f171 f172 ?v0) f163) f1)))
(assert (forall ((?v0 S12)) (= (f114 (f15 f170 ?v0) f162) f1)))
(assert (forall ((?v0 S12) (?v1 S12)) (= (f15 f170 (f15 (f90 f141 ?v0) ?v1)) (f15 (f90 f141 (f15 f170 ?v0)) (f15 f170 ?v1)))))
(assert (forall ((?v0 S12) (?v1 S12)) (= (f171 f172 (f15 (f90 f141 ?v0) ?v1)) (f11 (f86 f137 (f171 f172 ?v0)) (f171 f172 ?v1)))))
(assert (forall ((?v0 S12) (?v1 S12)) (= (f15 f170 (f15 (f90 f91 ?v0) ?v1)) (f15 (f90 f91 (f15 f170 ?v0)) (f15 f170 ?v1)))))
(assert (forall ((?v0 S12) (?v1 S12)) (= (f171 f172 (f15 (f90 f91 ?v0) ?v1)) (f11 (f86 f87 (f171 f172 ?v0)) (f171 f172 ?v1)))))
(assert (forall ((?v0 S8)) (= (f11 (f3 f4 f165) ?v0) f133)))
(assert (forall ((?v0 S12)) (= (f15 (f16 f17 f169) ?v0) f173)))
(assert (forall ((?v0 S52)) (= (f63 (f64 f65 f168) ?v0) f174)))
(assert (forall ((?v0 S19)) (= (f57 (f58 f59 f178) ?v0) f175)))
(assert (forall ((?v0 S33)) (= (f39 (f40 f41 f179) ?v0) f166)))
(assert (forall ((?v0 S24)) (= (f73 (f180 f181 f182) ?v0) f167)))
(assert (forall ((?v0 S25)) (= (f30 (f31 f32 f167) ?v0) f168)))
(assert (forall ((?v0 S11)) (= (f60 (f61 f62 f166) ?v0) f169)))
(assert (forall ((?v0 S3)) (= (f24 (f25 f26 f175) ?v0) f165)))
(assert (forall ((?v0 S6)) (= (f18 (f88 f89 f173) ?v0) f169)))
(assert (forall ((?v0 S6)) (= (f5 (f84 f85 f133) ?v0) f165)))
(assert (forall ((?v0 S6)) (= (f36 (f110 f111 f174) ?v0) f168)))
(assert (forall ((?v0 S6)) (= (f54 (f104 f105 f175) ?v0) f178)))
(assert (forall ((?v0 S6)) (= (f42 (f98 f99 f166) ?v0) f179)))
(assert (forall ((?v0 S6)) (= (f183 f167 ?v0) f182)))
(assert (forall ((?v0 S6)) (= (f33 (f95 f96 f168) ?v0) f167)))
(assert (forall ((?v0 S6)) (= (f45 (f107 f108 f169) ?v0) f166)))
(assert (forall ((?v0 S6)) (= (f27 (f92 f93 f165) ?v0) f175)))
(assert (forall ((?v0 S19)) (= (f57 (f78 f79 f175) ?v0) f175)))
(assert (forall ((?v0 S33)) (= (f39 (f71 f72 f166) ?v0) f166)))
(assert (forall ((?v0 S24)) (= (f73 (f74 f75 f167) ?v0) f167)))
(assert (forall ((?v0 S25)) (= (f30 (f80 f81 f168) ?v0) f168)))
(assert (forall ((?v0 S11)) (= (f60 (f82 f83 f169) ?v0) f169)))
(assert (forall ((?v0 S3)) (= (f24 (f69 f70 f165) ?v0) f165)))
(assert (forall ((?v0 S8)) (= (f11 (f86 f87 f133) ?v0) f133)))
(assert (forall ((?v0 S19)) (= (f57 (f78 f106 f175) ?v0) f175)))
(assert (forall ((?v0 S33)) (= (f39 (f71 f100 f166) ?v0) f166)))
(assert (forall ((?v0 S24)) (= (f73 (f74 f184 f167) ?v0) f167)))
(assert (forall ((?v0 S25)) (= (f30 (f80 f97 f168) ?v0) f168)))
(assert (forall ((?v0 S3)) (= (f24 (f69 f94 f165) ?v0) f165)))
(assert (forall ((?v0 S11)) (= (f60 (f82 f109 f169) ?v0) f169)))
(assert (forall ((?v0 S8)) (= (f11 (f86 f87 f133) ?v0) f133)))
(assert (forall ((?v0 S3)) (= (f154 (f155 f156 f175) ?v0) f175)))
(assert (forall ((?v0 S11)) (= (f142 (f143 f144 f166) ?v0) f166)))
(assert (forall ((?v0 S25)) (= (f146 (f147 f148 f167) ?v0) f167)))
(assert (forall ((?v0 S52)) (= (f158 (f159 f160 f168) ?v0) f168)))
(assert (forall ((?v0 S8)) (= (f134 (f135 f136 f165) ?v0) f165)))
(assert (forall ((?v0 S12)) (= (f138 (f139 f140 f169) ?v0) f169)))
(assert (forall ((?v0 S19)) (= (f57 (f78 f153 f175) ?v0) ?v0)))
(assert (forall ((?v0 S33)) (= (f39 (f71 f185 f166) ?v0) ?v0)))
(assert (forall ((?v0 S24)) (= (f73 (f74 f186 f167) ?v0) ?v0)))
(assert (forall ((?v0 S25)) (= (f30 (f80 f149 f168) ?v0) ?v0)))
(assert (forall ((?v0 S3)) (= (f24 (f69 f157 f165) ?v0) ?v0)))
(assert (forall ((?v0 S11)) (= (f60 (f82 f145 f169) ?v0) ?v0)))
(assert (forall ((?v0 S8)) (= (f11 (f86 f87 ?v0) f133) f133)))
(assert (forall ((?v0 S19)) (= (f57 (f78 f106 ?v0) f175) f175)))
(assert (forall ((?v0 S33)) (= (f39 (f71 f100 ?v0) f166) f166)))
(assert (forall ((?v0 S24)) (= (f73 (f74 f184 ?v0) f167) f167)))
(assert (forall ((?v0 S25)) (= (f30 (f80 f97 ?v0) f168) f168)))
(assert (forall ((?v0 S3)) (= (f24 (f69 f94 ?v0) f165) f165)))
(assert (forall ((?v0 S11)) (= (f60 (f82 f109 ?v0) f169) f169)))
(assert (forall ((?v0 S8)) (= (f11 (f86 f87 ?v0) f133) f133)))
(assert (forall ((?v0 S19)) (= (f57 (f78 f153 ?v0) f175) ?v0)))
(assert (forall ((?v0 S33)) (= (f39 (f71 f185 ?v0) f166) ?v0)))
(assert (forall ((?v0 S24)) (= (f73 (f74 f186 ?v0) f167) ?v0)))
(assert (forall ((?v0 S25)) (= (f30 (f80 f149 ?v0) f168) ?v0)))
(assert (forall ((?v0 S3)) (= (f24 (f69 f157 ?v0) f165) ?v0)))
(assert (forall ((?v0 S11)) (= (f60 (f82 f145 ?v0) f169) ?v0)))
(check-sat)
(exit)
